
Log started (V11.0.0) Sat May 24 16:04:55 2008

Tried aggregator 1 time.
Reduced MIP has 540 rows, 20001 columns, and 40040 nonzeros.
Presolve time =    0.14 sec.
Clique table members: 500.
MIP emphasis: balance optimality and feasibility.
MIP search method: dynamic search.
Parallel mode: none, using 1 thread.
Root relaxation solution time =    1.75 sec.

        Nodes                                         Cuts/
   Node  Left     Objective  IInf  Best Integer     Best Node    ItCnt     Gap

*     0+    0                       525038.0000    12525.1471      866   97.61%
*     0+    0                        13053.0000    12525.1471      866    4.04%
      0     0    12535.6337    79    13053.0000      Fract: 5      968    3.96%
*     0+    0                        13036.0000    12535.6337      968    3.84%
      0     0    12546.2107    80    13036.0000   Flowcuts: 1     1060    3.76%
      0     0    12555.0248    81    13036.0000       Cuts: 2     1311    3.69%
      0     0    12565.0381    86    13036.0000       Cuts: 3     1482    3.61%
      0     0    12565.0388    91    13036.0000       Cuts: 4     1497    3.61%
*     0+    0                        13034.0000    12565.0388     1497    3.60%
      0     0    12565.0430    99    13034.0000       Cuts: 4     1570    3.60%
*     0+    0                        13032.0000    12565.0430     1570    3.58%
*     0+    0                        13031.0000    12565.0430     1570    3.58%
*     0+    0                        13030.0000    12565.0430     1570    3.57%
*     0+    0                        13029.0000    12565.0430     1570    3.56%
*     0+    0                        13026.0000    12565.0430     1570    3.54%
      0     2    12565.0430    99    13026.0000    12565.0430     1570    3.54%
*    30+   30                        13025.0000    12565.0528     1889    3.53%
*    50+   50                        13024.0000    12565.0528     1987    3.52%
    100   102    12565.3110    83    13024.0000    12565.0528     2241    3.52%
    200   202    12565.5632    83    13024.0000    12565.0528     2765    3.52%
    300   302    12565.8142    82    13024.0000    12565.0528     3287    3.52%
    400   402    12565.9940    85    13024.0000    12565.0528     3826    3.52%
    500   502    12566.1989    85    13024.0000    12565.0528     4370    3.52%
    600   537    12720.9887   118    13024.0000    12720.1957    22630    2.33%
    700   526    12721.3847   102    13024.0000    12720.1957    23670    2.33%
    800   556    12731.4191    97    13024.0000    12720.1957    24589    2.33%
    900   580    12742.0243   102    13024.0000    12720.1957    26088    2.33%
   1000   621    12742.2534    98    13024.0000    12720.1957    27258    2.33%
Elapsed time = 371.00 sec. (tree size =  8.28 MB, solutions = 11)
   1100   653    12742.4893    99    13024.0000    12720.1957    28334    2.33%
   1200   680    12742.7125    97    13024.0000    12720.1957    29234    2.33%
   1300   749    12752.7570    93    13024.0000    12720.1957    29902    2.33%
   1400   849    12752.7715    96    13024.0000    12720.1957    30200    2.33%
   1500   888    12754.4226    95    13024.0000    12720.1957    31148    2.33%
   1600   982    12765.3998    86    13024.0000    12720.1957    31798    2.33%
   1700  1052    12766.8808    89    13024.0000    12720.1957    33185    2.33%
   1800  1146    12790.1645    86    13024.0000    12720.1957    35352    2.33%
   1900  1246    12790.6302    92    13024.0000    12720.1957    37924    2.33%
   2000  1346    12791.2129    89    13024.0000    12720.1957    40663    2.33%
Elapsed time = 572.52 sec. (tree size = 19.63 MB, solutions = 11)
   2100  1446    12792.3652    91    13024.0000    12720.1957    42221    2.33%
   2200  1546    12792.5802    92    13024.0000    12720.1957    43832    2.33%
   2300  1646    12803.5857    86    13024.0000    12720.1957    45777    2.33%
   2400  1746    12803.9555    86    13024.0000    12720.1957    46425    2.33%
   2500  1846    12804.2710    86    13024.0000    12720.1957    47168    2.33%
   2600  1939    12816.4482    85    13024.0000    12720.1957    47800    2.33%
   2700  2036    12840.6351    83    13024.0000    12720.1957    48674    2.33%
   2800  2136    12842.0723    81    13024.0000    12720.1957    49619    2.33%
   2900  2236    12853.6290    74    13024.0000    12720.1957    51592    2.33%
   3000  2336    12866.3660    81    13024.0000    12720.1957    54401    2.33%
Elapsed time = 696.22 sec. (tree size = 34.46 MB, solutions = 11)
   3100  2436    12854.2327    76    13024.0000    12720.1957    55493    2.33%
   3200  2536    12854.6807    75    13024.0000    12720.1957    57179    2.33%
   3300  2636    12854.8686    80    13024.0000    12720.1957    57814    2.33%
   3400  2736    12855.0747    75    13024.0000    12720.1957    58588    2.33%
   3500  2836    12855.2828    77    13024.0000    12720.1957    59293    2.33%
   3600  2933    12871.4063    80    13024.0000    12720.1957    60934    2.33%
   3700  3033    12871.4516    84    13024.0000    12720.1957    61840    2.33%
   3800  3132    12886.8752    77    13024.0000    12720.1957    62875    2.33%
   3900  3231    12887.4575    75    13024.0000    12720.1957    63831    2.33%
   4000  3329    12890.5745    75    13024.0000    12720.1957    64870    2.33%
Elapsed time = 780.59 sec. (tree size = 49.28 MB, solutions = 11)
   4100  3429    12907.4358    77    13024.0000    12720.1957    66141    2.33%
   4200  3528    12908.0327    70    13024.0000    12720.1957    66671    2.33%
   4300  3628    12908.5041    65    13024.0000    12720.1957    67250    2.33%
   4400  3728    12938.2034    53    13024.0000    12720.1957    67815    2.33%
   4500  3827    12939.2599    49    13024.0000    12720.1957    68167    2.33%
   4600  3924    12947.5079    51    13024.0000    12720.1957    68510    2.33%
   4700  4019    13012.3674    46    13024.0000    12720.1957    69022    2.33%
   4800  4115    12721.0178   151    13024.0000    12720.2225    73867    2.33%
   4900  4214    12721.5393   117    13024.0000    12720.2225    74889    2.33%
   5000  4314    12731.6654   102    13024.0000    12720.2225    75765    2.33%
Elapsed time = 860.47 sec. (tree size = 63.61 MB, solutions = 11)
   5100  4414    12732.3467   101    13024.0000    12720.2225    76768    2.33%
   5200  4514    12733.0551   100    13024.0000    12720.2225    77443    2.33%
   5300  4614    12733.6431    99    13024.0000    12720.2225    78202    2.33%
   5400  4714    12733.8318   103    13024.0000    12720.2225    78833    2.33%
   5500  4811    12744.8610    96    13024.0000    12720.2225    80363    2.33%
   5600  4911    12746.1466    98    13024.0000    12720.2225    80929    2.33%
   5700  5010    12758.3197    96    13024.0000    12720.2225    81989    2.33%
   5800  5110    12759.7918    97    13024.0000    12720.2225    82721    2.33%
   5900  5210    12760.0367   100    13024.0000    12720.2225    83418    2.33%
   6000  5310    12760.2883    99    13024.0000    12720.2225    83978    2.33%
Elapsed time = 955.92 sec. (tree size = 78.63 MB, solutions = 11)
   6100  5410    12760.6016    96    13024.0000    12720.2225    84502    2.33%
   6200  5510    12769.7175    93    13024.0000    12720.2225    86348    2.33%
   6300  5610    12769.9844    91    13024.0000    12720.2225    88637    2.33%
   6400  5710    12770.2352    90    13024.0000    12720.2225    91268    2.33%
   6500  5810    12770.5936    88    13024.0000    12720.2225    93218    2.33%
   6600  5910    12781.3332    95    13024.0000    12720.2225    94732    2.33%
   6700  6009    12781.3692    91    13024.0000    12720.2225    96142    2.33%
   6800  6109    12781.6534    87    13024.0000    12720.2225    96663    2.33%
   6900  6209    12781.8395    87    13024.0000    12720.2225    97132    2.33%
   7000  6309    12782.0260    91    13024.0000    12720.2225    97601    2.33%
Elapsed time = 1079.97 sec. (tree size = 93.87 MB, solutions = 11)
   7100  6376    12788.5686    90    13024.0000    12720.2225    98523    2.33%
   7200  6471    12817.4346    88    13024.0000    12720.2225    99835    2.33%
   7300  6571    12817.8114    89    13024.0000    12720.2225   100713    2.33%
   7400  6671    12818.1334    90    13024.0000    12720.2225   101525    2.33%
   7500  6768    12830.0807    87    13024.0000    12720.2225   102349    2.33%
   7600  6868    12830.3217    85    13024.0000    12720.2225   103174    2.33%
   7700  6968    12830.6235    85    13024.0000    12720.2225   104032    2.33%
   7800  7068    12831.0009    86    13024.0000    12720.2225   104771    2.33%
   7900  7166    12842.9690    85    13024.0000    12720.2225   106070    2.33%
   8000  7266    12857.1384    85    13024.0000    12720.2225   108916    2.33%
Elapsed time = 1175.48 sec. (tree size = 108.48 MB, solutions = 11)
   8100  7366    12858.5880    79    13024.0000    12720.2225   111092    2.33%
   8200  7464    12858.9219    83    13024.0000    12720.2225   112556    2.33%
   8300  7562    12871.1713    81    13024.0000    12720.2225   113963    2.33%
   8400  7639    12875.1614    81    13024.0000    12720.2225   114974    2.33%
   8500  7738    12923.4815    67    13024.0000    12720.2225   116016    2.33%
   8600  7838    12923.8517    64    13024.0000    12720.2225   116551    2.33%
   8700  7938    12925.6912    65    13024.0000    12720.2225   116948    2.33%
   8800  8033    12929.4362    61    13024.0000    12720.2225   117510    2.33%
   8900  8133    12955.0891    50    13024.0000    12720.2225   118030    2.33%
   9000  8227    12958.4108    50    13024.0000    12720.2225   118382    2.33%
Elapsed time = 1257.00 sec. (tree size = 123.27 MB, solutions = 11)
   9100  8327    12990.4466    43    13024.0000    12720.2225   118690    2.33%
   9200  8427    12990.7803    43    13024.0000    12720.2225   118829    2.33%
   9300  8526    12995.2469    44    13024.0000    12720.2225   118972    2.33%
Began writing nodes to disk (directory ./cpxa01652 created)
   9400  8619    13002.7588    44    13024.0000    12720.2225   119212    2.33%
   9500  8713    12721.0643   542    13024.0000    12720.3762   179067    2.33%
   9600  8813    12737.0128   323    13024.0000    12720.3778   198224    2.33%
   9700  8913    12765.5508   174    13024.0000    12720.3778   206591    2.33%
   9800  9013    12732.0087   356    13024.0000    12720.3808   218290    2.33%
   9900  9113    12744.8578   180    13024.0000    12720.3808   223563    2.33%
  10000  9213    12721.4979   334    13024.0000    12720.3836   231538    2.33%
Elapsed time = 2089.83 sec. (tree size = 143.82 MB, solutions = 11)
Nodefile size = 16.64 MB (4.03 MB after compression)
  10100  9313    12722.2455   211    13024.0000    12720.3836   236583    2.33%
  10200  9413    12721.6819   429    13024.0000    12720.3837   246424    2.33%
  10300  9513    12732.6615   216    13024.0000    12720.3837   251993    2.33%
  10400  9613    12721.5346   365    13024.0000    12720.3849   261656    2.33%
  10500  9713    12722.1479   216    13024.0000    12720.3849   265825    2.33%
  10600  9813    12726.9762   357    13024.0000    12720.3890   274749    2.33%
  10700  9913    12744.5857   177    13024.0000    12720.3890   280269    2.33%
  10800 10013    12721.7466   364    13024.0000    12720.3989   295630    2.33%
  10900 10113    12727.3987   209    13024.0000    12720.3989   299486    2.33%
  11000 10213    12721.8264   417    13024.0000    12720.4011   314912    2.33%
Elapsed time = 3027.89 sec. (tree size = 169.18 MB, solutions = 11)
Nodefile size = 41.36 MB (10.58 MB after compression)
  11100 10313    12727.2565   232    13024.0000    12720.4011   318085    2.33%
  11200 10413    12721.7314   400    13024.0000    12720.4019   326595    2.33%
  11300 10513    12727.1486   230    13024.0000    12720.4019   329933    2.33%
  11400 10613    12721.7610   400    13024.0000    12720.4024   343559    2.33%
  11500 10713    12722.4041   196    13024.0000    12720.4024   346884    2.33%
  11600 10813    12721.7350   419    13024.0000    12720.4030   360373    2.33%
  11700 10913    12722.4446   241    13024.0000    12720.4030   367818    2.33%
  11800 11013    12721.4208   427    13024.0000    12720.4051   376112    2.33%
  11900 11113    12732.8071   249    13024.0000    12720.4051   380452    2.33%
  12000 11213    12728.2201   369    13024.0000    12720.4069   388450    2.33%
Elapsed time = 3580.14 sec. (tree size = 195.60 MB, solutions = 11)
Nodefile size = 67.95 MB (17.43 MB after compression)
  12100 11313    12734.5901   233    13024.0000    12720.4069   391802    2.33%
  12200 11413    12726.8496   378    13024.0000    12720.4071   402248    2.33%
  12300 11513    12738.5037   171    13024.0000    12720.4071   405910    2.33%
  12400 11613    12721.6303   410    13024.0000    12720.4282   417015    2.33%
  12500 11713    12727.2880   240    13024.0000    12720.4282   420539    2.33%
  12600 11813    12721.7204   415    13024.0000    12720.4424   429297    2.33%
  12700 11913    12727.8847   222    13024.0000    12720.4424   433379    2.33%
  12800 12013    12721.6635   431    13024.0000    12720.4442   442426    2.33%
  12900 12113    12727.0089   266    13024.0000    12720.4442   446484    2.33%
  13000 12213    12721.6947   437    13024.0000    12720.4519   456092    2.33%
Elapsed time = 4106.20 sec. (tree size = 223.21 MB, solutions = 11)
Nodefile size = 95.46 MB (24.81 MB after compression)
  13100 12313    12726.9404   273    13024.0000    12720.4519   459547    2.33%
  13200 12413    12721.4440   454    13024.0000    12720.4525   468703    2.33%
  13300 12513    12722.0516   263    13024.0000    12720.4525   472034    2.33%
  13400 12613    12721.5591   424    13024.0000    12720.4533   479442    2.33%
  13500 12713    12722.1610   212    13024.0000    12720.4533   482004    2.33%
  13600 12813    12721.5265   463    13024.0000    12720.4534   490324    2.33%
  13700 12913    12738.6638   210    13024.0000    12720.4534   497878    2.33%
  13800 13013    12726.6127   422    13024.0000    12720.4540   510658    2.33%
  13900 13113    12732.8319   229    13024.0000    12720.4540   514800    2.33%
  14000 13213    12721.6065   457    13024.0000    12720.4540   523882    2.33%
Elapsed time = 4627.25 sec. (tree size = 251.81 MB, solutions = 11)
Nodefile size = 123.94 MB (36.49 MB after compression)
  14100 13313    12722.3407   245    13024.0000    12720.4540   527613    2.33%
  14200 13413    12721.8747   406    13024.0000    12720.4556   536513    2.33%
  14300 13513    12734.2093   227    13024.0000    12720.4556   543087    2.33%
  14400 13613    12726.4787   423    13024.0000    12720.4575   559393    2.33%
  14500 13713    12727.1557   233    13024.0000    12720.4575   562575    2.33%
  14600 13813    12726.4950   419    13024.0000    12720.4625   577826    2.33%
  14700 13913    12744.2759   198    13024.0000    12720.4625   585237    2.33%
  14800 14013    12726.7748   384    13024.0000    12720.4631   599265    2.33%
  14900 14113    12727.4080   252    13024.0000    12720.4631   602545    2.33%
  15000 14213    12726.9454   405    13024.0000    12720.4644   617680    2.33%
Elapsed time = 5347.84 sec. (tree size = 281.71 MB, solutions = 11)
Nodefile size = 154.30 MB (55.86 MB after compression)
  15100 14313    12732.9741   251    13024.0000    12720.4644   622610    2.33%
  15200 14413    12726.6357   421    13024.0000    12720.4654   637411    2.33%
  15300 14513    12738.6007   221    13024.0000    12720.4654   644288    2.33%
  15400 14613    12726.3666   403    13024.0000    12720.4656   687480    2.33%
  15500 14713    12727.1020   227    13024.0000    12720.4656   691619    2.33%
  15600 14813    12721.8177   379    13024.0000    12720.4658   698818    2.33%
  15700 14913    12727.4348   223    13024.0000    12720.4658   703011    2.33%
  15800 15013    12721.4820   456    13024.0000    12720.4659   714610    2.33%
  15900 15113    12727.0888   301    13024.0000    12720.4659   718923    2.33%
  16000 15213    12726.5114   395    13024.0000    12720.4660   733347    2.33%
Elapsed time = 6190.89 sec. (tree size = 312.79 MB, solutions = 11)
Nodefile size = 184.83 MB (80.53 MB after compression)
  16100 15313    12733.0465   206    13024.0000    12720.4660   738680    2.33%
  16200 15413    12721.6646   476    13024.0000    12720.4662   750724    2.33%
  16300 15513    12722.7197   308    13024.0000    12720.4662   754615    2.33%
  16400 15613    12721.4805   481    13024.0000    12720.4663   769642    2.33%
  16500 15713    12722.2396   243    13024.0000    12720.4663   775081    2.33%
  16600 15813    12721.7497   468    13024.0000    12720.4668   785938    2.33%
  16700 15913    12738.3043   291    13024.0000    12720.4668   795570    2.33%
  16800 16013    12726.7083   489    13024.0000    12720.4718   807785    2.33%
  16900 16113    12727.6275   306    13024.0000    12720.4718   811880    2.33%
  17000 16213    12721.7668   459    13024.0000    12720.4721   821618    2.33%
Elapsed time = 7083.84 sec. (tree size = 344.90 MB, solutions = 11)
Nodefile size = 217.27 MB (107.26 MB after compression)
  17100 16313    12727.2136   264    13024.0000    12720.4721   826675    2.33%

Cover cuts applied:  1815
Flow cuts applied:  9
Gomory fractional cuts applied:  24

Solution pool: 11 solutions saved.

MIP - Time limit exceeded, integer feasible:  Objective = 1.3024000000e+004
Current MIP best bound = 1.2720472096e+004 (gap = 303.528, 2.33%)
Solution time = 7200.48 sec.  Iterations = 835263  Nodes = 17182 (16394)


Incumbent solution
Variable Name           Solution Value
Cmax                      13024.000000
X_1_28                        1.000000
X_2_6                         1.000000
X_3_39                        1.000000
X_4_7                         1.000000
X_5_9                         1.000000
X_6_27                        1.000000
X_7_8                         1.000000
X_8_1                         1.000000
X_9_28                        1.000000
X_10_12                       1.000000
X_11_24                       1.000000
X_12_24                       1.000000
X_13_32                       1.000000
X_14_27                       1.000000
X_15_32                       1.000000
X_16_7                        1.000000
X_17_34                       1.000000
X_18_7                        1.000000
X_19_10                       1.000000
X_20_27                       1.000000
X_21_36                       1.000000
X_22_10                       1.000000
X_23_12                       1.000000
X_24_2                        1.000000
X_25_23                       1.000000
X_26_19                       1.000000
X_27_7                        1.000000
X_28_12                       1.000000
X_29_23                       1.000000
X_30_31                       1.000000
X_31_21                       1.000000
X_32_19                       1.000000
X_33_35                       1.000000
X_34_35                       1.000000
X_35_33                       1.000000
X_36_27                       1.000000
X_37_29                       1.000000
X_38_38                       1.000000
X_39_32                       1.000000
X_40_15                       1.000000
X_41_35                       1.000000
X_42_5                        1.000000
X_43_37                       1.000000
X_44_9                        1.000000
X_45_35                       1.000000
X_46_31                       1.000000
X_47_16                       1.000000
X_48_32                       1.000000
X_49_40                       1.000000
X_50_13                       1.000000
X_51_36                       1.000000
X_52_24                       1.000000
X_53_30                       1.000000
X_54_28                       1.000000
X_55_20                       1.000000
X_56_17                       1.000000
X_57_16                       1.000000
X_58_16                       1.000000
X_59_31                       1.000000
X_60_38                       1.000000
X_61_15                       1.000000
X_62_30                       1.000000
X_63_12                       1.000000
X_64_8                        1.000000
X_65_30                       1.000000
X_66_4                        1.000000
X_67_10                       1.000000
X_68_9                        1.000000
X_69_27                       1.000000
X_70_25                       1.000000
X_71_5                        1.000000
X_72_28                       1.000000
X_73_19                       1.000000
X_74_21                       1.000000
X_75_4                        1.000000
X_76_18                       1.000000
X_77_4                        1.000000
X_78_21                       1.000000
X_79_21                       1.000000
X_80_11                       1.000000
X_81_14                       1.000000
X_82_9                        1.000000
X_83_15                       1.000000
X_84_33                       1.000000
X_85_37                       1.000000
X_86_29                       1.000000
X_87_33                       1.000000
X_88_11                       1.000000
X_89_6                        1.000000
X_90_7                        1.000000
X_91_3                        1.000000
X_92_23                       1.000000
X_93_22                       1.000000
X_94_19                       1.000000
X_95_25                       1.000000
X_96_39                       1.000000
X_97_6                        1.000000
X_98_6                        1.000000
X_99_9                        1.000000
X_100_27                      1.000000
X_101_8                       1.000000
X_102_2                       1.000000
X_103_34                      1.000000
X_104_12                      1.000000
X_105_34                      1.000000
X_106_2                       1.000000
X_107_7                       1.000000
X_108_31                      1.000000
X_109_11                      1.000000
X_110_32                      1.000000
X_111_3                       1.000000
X_112_15                      1.000000
X_113_23                      1.000000
X_114_22                      1.000000
X_115_14                      1.000000
X_116_1                       1.000000
X_117_9                       1.000000
X_118_3                       1.000000
X_119_23                      1.000000
X_120_31                      1.000000
X_121_25                      1.000000
X_122_14                      1.000000
X_123_39                      1.000000
X_124_25                      1.000000
X_125_7                       1.000000
X_126_1                       1.000000
X_127_17                      1.000000
X_128_11                      1.000000
X_129_31                      1.000000
X_130_27                      1.000000
X_131_29                      1.000000
X_132_8                       1.000000
X_133_14                      1.000000
X_134_6                       1.000000
X_135_15                      1.000000
X_136_18                      1.000000
X_137_17                      1.000000
X_138_10                      1.000000
X_139_11                      1.000000
X_140_8                       1.000000
X_141_18                      1.000000
X_142_16                      1.000000
X_143_3                       1.000000
X_144_23                      1.000000
X_145_30                      1.000000
X_146_37                      1.000000
X_147_20                      1.000000
X_148_2                       1.000000
X_149_25                      1.000000
X_150_25                      1.000000
X_151_17                      1.000000
X_152_39                      1.000000
X_153_30                      1.000000
X_154_4                       1.000000
X_155_8                       1.000000
X_156_18                      1.000000
X_157_23                      1.000000
X_158_8                       1.000000
X_159_13                      1.000000
X_160_15                      1.000000
X_161_17                      1.000000
X_162_32                      1.000000
X_163_16                      1.000000
X_164_12                      1.000000
X_165_6                       1.000000
X_166_16                      1.000000
X_167_34                      1.000000
X_168_39                      1.000000
X_169_18                      1.000000
X_170_20                      1.000000
X_171_35                      1.000000
X_172_13                      1.000000
X_173_5                       1.000000
X_174_26                      1.000000
X_175_22                      1.000000
X_176_32                      1.000000
X_177_10                      1.000000
X_178_33                      1.000000
X_179_33                      1.000000
X_180_28                      1.000000
X_181_3                       1.000000
X_182_40                      1.000000
X_183_7                       1.000000
X_184_37                      1.000000
X_185_5                       1.000000
X_186_26                      1.000000
X_187_19                      1.000000
X_188_12                      1.000000
X_189_22                      1.000000
X_190_17                      1.000000
X_191_13                      1.000000
X_192_22                      1.000000
X_193_15                      1.000000
X_194_31                      1.000000
X_195_21                      1.000000
X_196_22                      1.000000
X_197_33                      1.000000
X_198_36                      1.000000
X_199_5                       1.000000
X_200_31                      1.000000
X_201_5                       1.000000
X_202_24                      1.000000
X_203_1                       1.000000
X_204_6                       1.000000
X_205_29                      1.000000
X_206_16                      1.000000
X_207_13                      1.000000
X_208_23                      1.000000
X_209_23                      1.000000
X_210_16                      1.000000
X_211_5                       1.000000
X_212_28                      1.000000
X_213_28                      1.000000
X_214_34                      1.000000
X_215_23                      1.000000
X_216_2                       1.000000
X_217_37                      1.000000
X_218_1                       1.000000
X_219_16                      1.000000
X_220_37                      1.000000
X_221_38                      1.000000
X_222_13                      1.000000
X_223_38                      1.000000
X_224_36                      1.000000
X_225_40                      1.000000
X_226_1                       1.000000
X_227_15                      1.000000
X_228_23                      1.000000
X_229_19                      1.000000
X_230_10                      1.000000
X_231_15                      1.000000
X_232_29                      1.000000
X_233_18                      1.000000
X_234_8                       1.000000
X_235_16                      1.000000
X_236_13                      1.000000
X_237_40                      1.000000
X_238_8                       1.000000
X_239_17                      1.000000
X_240_40                      1.000000
X_241_18                      1.000000
X_242_18                      1.000000
X_243_33                      1.000000
X_244_34                      1.000000
X_245_40                      1.000000
X_246_38                      1.000000
X_247_36                      1.000000
X_248_36                      1.000000
X_249_26                      1.000000
X_250_9                       1.000000
X_251_3                       1.000000
X_252_35                      1.000000
X_253_1                       1.000000
X_254_35                      1.000000
X_255_27                      1.000000
X_256_7                       1.000000
X_257_27                      1.000000
X_258_25                      1.000000
X_259_30                      1.000000
X_260_5                       1.000000
X_261_29                      1.000000
X_262_5                       1.000000
X_263_26                      1.000000
X_264_28                      1.000000
X_265_10                      1.000000
X_266_40                      1.000000
X_267_26                      1.000000
X_268_20                      1.000000
X_269_28                      1.000000
X_270_35                      1.000000
X_271_17                      1.000000
X_272_40                      1.000000
X_273_21                      1.000000
X_274_38                      1.000000
X_275_18                      1.000000
X_276_11                      1.000000
X_277_39                      1.000000
X_278_36                      1.000000
X_279_10                      1.000000
X_280_22                      1.000000
X_281_24                      1.000000
X_282_36                      1.000000
X_283_22                      1.000000
X_284_8                       1.000000
X_285_3                       1.000000
X_286_38                      1.000000
X_287_7                       1.000000
X_288_11                      1.000000
X_289_9                       1.000000
X_290_12                      1.000000
X_291_33                      1.000000
X_292_34                      1.000000
X_293_8                       1.000000
X_294_30                      1.000000
X_295_18                      1.000000
X_296_21                      1.000000
X_297_12                      1.000000
X_298_25                      1.000000
X_299_5                       1.000000
X_300_9                       1.000000
X_301_15                      1.000000
X_302_15                      1.000000
X_303_27                      1.000000
X_304_28                      1.000000
X_305_1                       1.000000
X_306_28                      1.000000
X_307_25                      1.000000
X_308_2                       1.000000
X_309_36                      1.000000
X_310_18                      1.000000
X_311_35                      1.000000
X_312_37                      1.000000
X_313_10                      1.000000
X_314_19                      1.000000
X_315_20                      1.000000
X_316_34                      1.000000
X_317_26                      1.000000
X_318_33                      1.000000
X_319_2                       1.000000
X_320_37                      1.000000
X_321_26                      1.000000
X_322_38                      1.000000
X_323_9                       1.000000
X_324_14                      1.000000
X_325_30                      1.000000
X_326_17                      1.000000
X_327_7                       1.000000
X_328_11                      1.000000
X_329_40                      1.000000
X_330_11                      1.000000
X_331_13                      1.000000
X_332_33                      1.000000
X_333_16                      1.000000
X_334_33                      1.000000
X_335_21                      1.000000
X_336_10                      1.000000
X_337_22                      1.000000
X_338_29                      1.000000
X_339_2                       1.000000
X_340_24                      1.000000
X_341_25                      1.000000
X_342_30                      1.000000
X_343_22                      1.000000
X_344_3                       1.000000
X_345_4                       1.000000
X_346_14                      1.000000
X_347_31                      1.000000
X_348_6                       1.000000
X_349_11                      1.000000
X_350_22                      1.000000
X_351_25                      1.000000
X_352_24                      1.000000
X_353_29                      1.000000
X_354_34                      1.000000
X_355_15                      1.000000
X_356_22                      1.000000
X_357_26                      1.000000
X_358_29                      1.000000
X_359_19                      1.000000
X_360_9                       1.000000
X_361_17                      1.000000
X_362_14                      1.000000
X_363_19                      1.000000
X_364_17                      1.000000
X_365_35                      1.000000
X_366_20                      1.000000
X_367_39                      1.000000
X_368_4                       1.000000
X_369_14                      1.000000
X_370_24                      1.000000
X_371_30                      1.000000
X_372_37                      1.000000
X_373_26                      1.000000
X_374_21                      1.000000
X_375_3                       1.000000
X_376_21                      1.000000
X_377_4                       1.000000
X_378_21                      1.000000
X_379_20                      1.000000
X_380_6                       1.000000
X_381_7                       1.000000
X_382_1                       1.000000
X_383_13                      1.000000
X_384_20                      1.000000
X_385_32                      1.000000
X_386_5                       1.000000
X_387_22                      1.000000
X_388_37                      1.000000
X_389_16                      1.000000
X_390_10                      1.000000
X_391_3                       1.000000
X_392_35                      1.000000
X_393_40                      1.000000
X_394_2                       1.000000
X_395_31                      1.000000
X_396_3                       1.000000
X_397_14                      1.000000
X_398_21                      1.000000
X_399_4                       1.000000
X_400_38                      1.000000
X_401_20                      1.000000
X_402_2                       1.000000
X_403_39                      1.000000
X_404_36                      1.000000
X_405_19                      1.000000
X_406_10                      1.000000
X_407_14                      1.000000
X_408_11                      1.000000
X_409_12                      1.000000
X_410_25                      1.000000
X_411_29                      1.000000
X_412_37                      1.000000
X_413_23                      1.000000
X_414_27                      1.000000
X_415_6                       1.000000
X_416_2                       1.000000
X_417_33                      1.000000
X_418_12                      1.000000
X_419_29                      1.000000
X_420_36                      1.000000
X_421_14                      1.000000
X_422_8                       1.000000
X_423_2                       1.000000
X_424_1                       1.000000
X_425_40                      1.000000
X_426_4                       1.000000
X_427_31                      1.000000
X_428_11                      1.000000
X_429_24                      1.000000
X_430_38                      1.000000
X_431_32                      1.000000
X_432_40                      1.000000
X_433_35                      1.000000
X_434_23                      1.000000
X_435_4                       1.000000
X_436_4                       1.000000
X_437_28                      1.000000
X_438_19                      1.000000
X_439_30                      1.000000
X_440_39                      1.000000
X_441_34                      1.000000
X_442_34                      1.000000
X_443_34                      1.000000
X_444_32                      1.000000
X_445_13                      1.000000
X_446_5                       1.000000
X_447_21                      1.000000
X_448_2                       1.000000
X_449_6                       1.000000
X_450_12                      1.000000
X_451_32                      1.000000
X_452_3                       1.000000
X_453_5                       1.000000
X_454_37                      1.000000
X_455_20                      1.000000
X_456_31                      1.000000
X_457_9                       1.000000
X_458_30                      1.000000
X_459_20                      1.000000
X_460_17                      1.000000
X_461_39                      1.000000
X_462_26                      1.000000
X_463_40                      1.000000
X_464_26                      1.000000
X_465_18                      1.000000
X_466_34                      1.000000
X_467_10                      1.000000
X_468_38                      1.000000
X_469_36                      1.000000
X_470_17                      1.000000
X_471_1                       1.000000
X_472_32                      1.000000
X_473_27                      1.000000
X_474_28                      1.000000
X_475_9                       1.000000
X_476_26                      1.000000
X_477_14                      1.000000
X_478_35                      1.000000
X_479_30                      1.000000
X_480_39                      1.000000
X_481_14                      1.000000
X_482_29                      1.000000
X_483_24                      1.000000
X_484_24                      1.000000
X_485_26                      1.000000
X_486_13                      1.000000
X_487_7                       1.000000
X_488_25                      1.000000
X_489_38                      1.000000
X_490_1                       1.000000
X_491_33                      1.000000
X_492_24                      1.000000
X_493_20                      1.000000
X_494_6                       1.000000
X_495_4                       1.000000
X_496_11                      1.000000
X_497_13                      1.000000
X_498_38                      1.000000
X_499_19                      1.000000
X_500_39                      1.000000
All other variables in the range 1-20001 are 0.
